(declare-const X String)
; Host\x3A\w+wwwfromToolbartheServer\x3Awww\x2Esearchreslt\x2Ecom
(assert (str.in_re X (re.++ (str.to_re "Host:") (re.+ (re.union (re.range "0" "9") (re.range "A" "Z") (re.range "a" "z") (str.to_re "_"))) (str.to_re "wwwfromToolbartheServer:www.searchreslt.com\u{a}"))))
; User-Agent\x3A.*User-Agent\x3A.*spyblini\x2Einidata\.warezclient\.com
(assert (str.in_re X (re.++ (str.to_re "User-Agent:") (re.* re.allchar) (str.to_re "User-Agent:") (re.* re.allchar) (str.to_re "spyblini.inidata.warezclient.com\u{a}"))))
; /gate\x2ephp\x3freg=[a-zA-Z]{15}/U
(assert (str.in_re X (re.++ (str.to_re "/gate.php?reg=") ((_ re.loop 15 15) (re.union (re.range "a" "z") (re.range "A" "Z"))) (str.to_re "/U\u{a}"))))
(check-sat)

(exit)
